p cnf 175 350
1 -175 -76 0
1 -175 38 0
1 -174 99 0
1 -174 118 0
1 -173 -73 0
1 -173 -47 0
1 -172 109 0
1 -172 143 0
1 -171 131 0
1 -171 152 0
1 -170 -61 0
1 -170 -8 0
1 -169 21 0
1 -169 167 0
1 -168 -119 0
1 -168 -69 0
1 -167 88 0
1 -167 149 0
1 -166 -108 0
1 -166 -79 0
1 -165 -3 0
1 -165 1 0
1 -164 34 0
1 -164 169 0
1 -163 -98 0
1 -163 45 0
1 -162 -49 0
1 -162 158 0
1 -161 -41 0
1 -161 99 0
1 -160 -66 0
1 -160 164 0
1 -159 -88 0
1 -159 20 0
1 -158 53 0
1 -158 146 0
1 -157 -90 0
1 -157 83 0
1 -156 64 0
1 -156 77 0
1 -155 -136 0
1 -155 126 0
1 -154 -92 0
1 -154 153 0
1 -153 -134 0
1 -153 57 0
1 -152 47 0
1 -152 138 0
1 -151 -128 0
1 -151 -54 0
1 -150 -4 0
1 -150 115 0
1 -149 69 0
1 -149 76 0
1 -148 -39 0
1 -148 156 0
1 -147 -82 0
1 -147 -9 0
1 -146 -127 0
1 -146 -95 0
1 -145 -18 0
1 -145 2 0
1 -144 35 0
1 -144 164 0
1 -143 -141 0
1 -143 68 0
1 -142 18 0
1 -142 123 0
1 -141 124 0
1 -140 112 0
1 -140 117 0
1 -139 20 0
1 -139 101 0
1 -138 85 0
1 -138 90 0
1 -137 28 0
1 -137 61 0
1 -136 -132 0
1 -135 -43 0
1 -135 51 0
1 -134 170 0
1 -133 -45 0
1 -133 -10 0
1 -132 29 0
1 -131 8 0
1 -131 86 0
1 -130 3 0
1 -130 155 0
1 -129 32 0
1 -129 44 0
1 -128 -94 0
1 -127 157 0
1 -126 116 0
1 -126 139 0
1 -125 71 0
1 -125 85 0
1 -124 -92 0
1 -124 -52 0
1 -123 -56 0
1 -123 15 0
1 -122 -34 0
1 -122 -4 0
1 -121 -85 0
1 -121 -57 0
1 -120 -113 0
1 -120 -42 0
1 -119 6 0
1 -118 -45 0
1 -118 81 0
1 -117 130 0
1 -117 154 0
1 -116 67 0
1 -116 78 0
1 -115 36 0
1 -115 163 0
1 -114 -42 0
1 -114 30 0
1 -113 16 0
1 -112 -71 0
1 -112 155 0
1 -111 -79 0
1 -111 154 0
1 -110 -60 0
1 -110 175 0
1 -109 55 0
1 -109 68 0
1 -108 22 0
1 -107 -103 0
1 -107 11 0
1 -106 -97 0
1 -106 56 0
1 -105 91 0
1 -105 110 0
1 -104 -52 0
1 -104 60 0
1 -103 80 0
1 -102 86 0
1 -102 139 0
1 -101 -63 0
1 -101 59 0
1 -100 -26 0
1 -100 128 0
1 -99 14 0
1 -99 27 0
1 -98 23 0
1 -97 160 0
1 -96 -58 0
1 -96 -33 0
1 -95 3 0
1 -94 43 0
1 -93 -46 0
1 -93 47 0
1 -91 38 0
1 -91 92 0
1 -90 122 0
1 -89 48 0
1 -89 126 0
1 -88 58 0
1 -87 -30 0
1 -87 37 0
1 -86 98 0
1 -86 125 0
1 -85 74 0
1 -84 104 0
1 -84 112 0
1 -83 -69 0
1 -83 57 0
1 -82 7 0
1 -81 -63 0
1 -81 108 0
1 -80 95 0
1 -80 110 0
1 -78 -1 0
1 -78 6 0
1 -77 -60 0
1 -77 -37 0
1 -76 -28 0
1 -75 11 0
1 -75 141 0
1 -74 -47 0
1 -74 -25 0
1 -73 16 0
1 -72 -66 0
1 -72 74 0
1 -71 95 0
1 -70 -41 0
1 -70 62 0
1 -68 26 0
1 -68 53 0
1 -67 5 0
1 -67 168 0
1 -65 83 0
1 -65 135 0
1 -64 36 0
1 -64 84 0
1 -62 41 0
1 -62 51 0
1 -61 -2 0
1 -59 2 0
1 -59 37 0
1 -58 -26 0
1 -57 31 0
1 -56 70 0
1 -55 42 0
1 -55 107 0
1 -54 12 0
1 -53 28 0
1 -53 106 0
1 -51 58 0
1 -51 94 0
1 -50 -32 0
1 -50 -16 0
1 -49 -32 0
1 -48 54 0
1 -48 173 0
1 -46 15 0
1 -44 26 0
1 -44 72 0
1 -43 121 0
1 -40 24 0
1 -40 131 0
1 -39 140 0
1 -38 30 0
1 -38 76 0
1 -37 114 0
1 -36 161 0
1 -36 169 0
1 -35 -1 0
1 -35 96 0
1 -34 160 0
1 -33 -16 0
1 -31 70 0
1 -31 166 0
1 -30 121 0
1 -29 19 0
1 -29 125 0
1 -28 149 0
1 -27 65 0
1 -27 166 0
1 -25 -14 0
1 -24 101 0
1 -24 127 0
1 -23 129 0
1 -23 163 0
1 -22 -13 0
1 -22 19 0
1 -21 115 0
1 -21 130 0
1 -20 88 0
1 -20 138 0
1 -19 7 0
1 -19 104 0
1 -18 129 0
1 -17 81 0
1 -17 162 0
1 -15 -6 0
1 -15 8 0
1 -14 142 0
1 -13 119 0
1 -12 4 0
1 -12 137 0
1 -11 1 0
1 -11 13 0
1 -10 27 0
1 -9 141 0
1 -8 52 0
1 -7 13 0
1 -7 107 0
1 -6 17 0
1 -5 66 0
1 -5 103 0
1 -3 119 0
1 -2 97 0
1 4 172 0
1 5 151 0
1 9 145 0
1 9 151 0
1 10 100 0
1 10 105 0
1 12 118 0
1 14 97 0
1 17 82 0
1 18 78 0
1 21 73 0
1 22 98 0
1 23 31 0
1 24 29 0
1 25 46 0
1 25 174 0
1 32 54 0
1 33 49 0
1 33 136 0
1 34 56 0
1 35 170 0
1 39 55 0
1 39 103 0
1 40 128 0
1 40 147 0
1 41 80 0
1 42 64 0
1 43 117 0
1 44 62 0
1 45 135 0
1 46 150 0
1 48 111 0
1 49 156 0
1 50 87 0
1 50 100 0
1 52 140 0
1 59 90 0
1 60 133 0
1 61 136 0
1 63 65 0
1 63 106 0
1 66 102 0
1 67 132 0
1 69 71 0
1 72 92 0
1 73 82 0
1 75 120 0
1 75 175 0
1 77 122 0
1 79 105 0
1 79 146 0
1 84 134 0
1 87 142 0
1 89 102 0
1 89 124 0
1 91 94 0
1 93 144 0
1 93 159 0
1 96 171 0
1 108 143 0
1 109 153 0
1 111 158 0
1 113 171 0
1 113 174 0
1 114 172 0
1 116 150 0
1 120 134 0
1 123 127 0
1 132 165 0
1 133 173 0
1 137 147 0
1 144 168 0
1 145 161 0
1 148 152 0
1 148 157 0
1 159 165 0
1 162 167 0
